NAME : pairopt.-191181.tour
COMMENT : Length = -191181
COMMENT : Found by LKH-3 [Keld Helsgaun] Fri Apr 18 09:27:17 2025
TYPE : TOUR
DIMENSION : 25
TOUR_SECTION
1
2
11
12
13
14
15
16
21
20
23
25
3
24
17
22
19
10
9
8
7
6
18
5
4
-1
EOF
